data/solutions/recovery/degenerate/moderate/flexible/degenerate_moderate_instance6/23.sol
Elapsed time: 0.12
Upper bound: 10507552.0
Planning weighted value: 67222376.0
C[0]=10507552.0
C[1]=10507027.0
C[2]=10504276.0
y[0]=2
y[1]=0
y[2]=2
y[3]=0
y[4]=0
y[5]=1
y[6]=2
y[7]=0
y[8]=1
y[9]=1
y[10]=1
y[11]=2
y[12]=2
y[13]=0
y[14]=0
y[15]=2
y[16]=2
y[17]=1
y[18]=2
y[19]=0
y[20]=1
y[21]=0
y[22]=2
y[23]=1
y[24]=1
y[25]=2
