data/solutions/recovery/degenerate/moderate/flexible/degenerate_moderate_instance6/23.log

Log started (V12.6.3.0) Sat Apr 21 11:06:22 2018

New value for default parallel thread count: 1

Problem '/tmp/tmp33x_FQ.pyomo.lp' read.
Read time = 0.00 sec. (0.02 ticks)

Problem name         : /tmp/tmp33x_FQ.pyomo.lp
Objective sense      : Minimize
Variables            :      83  [Nneg: 1,  Binary: 78,  General Integer: 4]
Objective nonzeros   :       1
Linear constraints   :      59  [Less: 29,  Equal: 30]
  Nonzeros           :    1466
  RHS nonzeros       :      53

Variables            : Min LB: 0.000000         Max UB: 1.000000       
Objective nonzeros   : Min   : 1.000000         Max   : 1.000000       
Linear constraints   :
  Nonzeros           : Min   : 1.000000         Max   : 2096995.       
  RHS nonzeros       : Min   : 1.000000         Max   : 3.000000       
Tried aggregator 2 times.
MIP Presolve eliminated 26 rows and 1 columns.
Aggregator did 3 substitutions.
Reduced MIP has 30 rows, 79 columns, and 209 nonzeros.
Reduced MIP has 78 binaries, 1 generals, 0 SOSs, and 0 indicators.
Presolve time = 0.00 sec. (0.56 ticks)
Found incumbent of value 1.2393667e+07 after 0.00 sec. (0.70 ticks)
Probing time = 0.00 sec. (0.04 ticks)
Cover probing fixed 0 vars, tightened 4 bounds.
Tried aggregator 1 time.
Reduced MIP has 30 rows, 79 columns, and 209 nonzeros.
Reduced MIP has 78 binaries, 1 generals, 0 SOSs, and 0 indicators.
Presolve time = 0.00 sec. (0.13 ticks)
Probing time = 0.00 sec. (0.03 ticks)
Clique table members: 26.
MIP emphasis: balance optimality and feasibility.
MIP search method: dynamic search.
Parallel mode: none, using 1 thread.
Root relaxation solution time = 0.00 sec. (0.07 ticks)

        Nodes                                         Cuts/
   Node  Left     Objective  IInf  Best Integer    Best Bound    ItCnt     Gap

*     0+    0                       1.23937e+07  2096995.0000            83.08%
      0     0   1.05063e+07     4   1.23937e+07   1.05063e+07        5   15.23%
*     0+    0                       1.07612e+07   1.05063e+07             2.37%
      0     0   1.05063e+07     6   1.07612e+07      Fract: 2        9    2.37%
*     0+    0                       1.06051e+07   1.05063e+07             0.93%
      0     0   1.05063e+07     6   1.06051e+07   LiftProj: 1       12    0.93%
*     0+    0                       1.05291e+07   1.05063e+07             0.22%
      0     2   1.05063e+07     6   1.05291e+07   1.05063e+07       12    0.22%
Elapsed time = 0.01 sec. (2.78 ticks, tree = 0.01 MB, solutions = 3)
*    50    42      integral     0   1.05176e+07   1.05063e+07      103    0.11%
*    70+   58                       1.05158e+07   1.05063e+07             0.09%
*   658    42      integral     0   1.05111e+07   1.05063e+07     1493    0.05%
*  1290+   49                       1.05076e+07   1.05063e+07             0.01%

Cover cuts applied:  49
Lift and project cuts applied:  1

Root node processing (before b&c):
  Real time             =    0.01 sec. (2.78 ticks)
Sequential b&c:
  Real time             =    0.08 sec. (65.87 ticks)
                          ------------
Total (root+branch&cut) =    0.08 sec. (68.65 ticks)

Solution pool: 7 solutions saved.

MIP - Integer optimal solution:  Objective =  1.0507552000e+07
Solution time =    0.08 sec.  Iterations = 3698  Nodes = 1772
Deterministic time = 68.65 ticks  (810.12 ticks/sec)


Incumbent solution written to file '/tmp/tmphrfzKi.cplex.sol'.
